tolerance 1.8
seed -1

filetype xyz
output system.xyz

structure LiClO4.xyz
number 1
inside cylinder -12.815939732799256 21.92140872883148 7.268909714285714 -0.16884749038929328 -0.1448511982859706 8.136739341022567 2.8 54.97846
over plane 0.0 -0.0 1.0 0.0
below plane 0.0 -0.0 1.0 56.96
over plane 0.866 0.4994 0.02686 0.0
below plane 0.866 0.4994 0.02686 44.1
over plane -0.0 0.9998 0.0178 0.0
below plane -0.0 0.9998 0.0178 44.12
end structure

structure LiClO4.xyz
number 1
inside cylinder -25.53992101866382 43.98582161140799 7.268909714285714 -0.16884749038929328 -0.1448511982859706 8.136739341022567 2.8 54.97846
over plane 0.0 -0.0 1.0 0.0
below plane 0.0 -0.0 1.0 56.96
over plane 0.866 0.4994 0.02686 0.0
below plane 0.866 0.4994 0.02686 44.1
over plane -0.0 0.9998 0.0178 0.0
below plane -0.0 0.9998 0.0178 44.12
end structure

structure LiClO4.xyz
number 1
inside cylinder 12.64595403163492 21.92140872883148 7.268909714285714 -0.16884749038929328 -0.1448511982859706 8.136739341022567 2.8 54.97846
over plane 0.0 -0.0 1.0 0.0
below plane 0.0 -0.0 1.0 56.96
over plane 0.866 0.4994 0.02686 0.0
below plane 0.866 0.4994 0.02686 44.1
over plane -0.0 0.9998 0.0178 0.0
below plane -0.0 0.9998 0.0178 44.12
end structure

structure LiClO4.xyz
number 1
inside cylinder -0.07802725422964146 43.98582161140799 7.268909714285714 -0.16884749038929328 -0.1448511982859706 8.136739341022567 2.8 54.97846
over plane 0.0 -0.0 1.0 0.0
below plane 0.0 -0.0 1.0 56.96
over plane 0.866 0.4994 0.02686 0.0
below plane 0.866 0.4994 0.02686 44.1
over plane -0.0 0.9998 0.0178 0.0
below plane -0.0 0.9998 0.0178 44.12
end structure

structure LiClO4.xyz
number 1
inside cylinder 12.614418868265012 7.296591292647558 0.7745632365714286 -0.16884749038929328 -0.1448511982859706 8.136739341022567 2.8 54.97846
over plane 0.0 -0.0 1.0 0.0
below plane 0.0 -0.0 1.0 56.96
over plane 0.866 0.4994 0.02686 0.0
below plane 0.866 0.4994 0.02686 44.1
over plane -0.0 0.9998 0.0178 0.0
below plane -0.0 0.9998 0.0178 44.12
end structure

structure LiClO4.xyz
number 1
inside cylinder -0.10956241759955176 29.36100417522407 0.7745632365714286 -0.16884749038929328 -0.1448511982859706 8.136739341022567 2.8 54.97846
over plane 0.0 -0.0 1.0 0.0
below plane 0.0 -0.0 1.0 56.96
over plane 0.866 0.4994 0.02686 0.0
below plane 0.866 0.4994 0.02686 44.1
over plane -0.0 0.9998 0.0178 0.0
below plane -0.0 0.9998 0.0178 44.12
end structure

structure LiClO4.xyz
number 1
inside cylinder 38.0763126326992 7.296591292647558 0.7745632365714286 -0.16884749038929328 -0.1448511982859706 8.136739341022567 2.8 54.97846
over plane 0.0 -0.0 1.0 0.0
below plane 0.0 -0.0 1.0 56.96
over plane 0.866 0.4994 0.02686 0.0
below plane 0.866 0.4994 0.02686 44.1
over plane -0.0 0.9998 0.0178 0.0
below plane -0.0 0.9998 0.0178 44.12
end structure

structure LiClO4.xyz
number 1
inside cylinder 25.35233134683463 29.36100417522407 0.7745632365714286 -0.16884749038929328 -0.1448511982859706 8.136739341022567 2.8 54.97846
over plane 0.0 -0.0 1.0 0.0
below plane 0.0 -0.0 1.0 56.96
over plane 0.866 0.4994 0.02686 0.0
below plane 0.866 0.4994 0.02686 44.1
over plane -0.0 0.9998 0.0178 0.0
below plane -0.0 0.9998 0.0178 44.12
end structure

structure data.16510N2_ddec-0.75.xyz
number 1
fixed 0 0 0 0 0 0
end structure