tolerance 1.8
seed -1

filetype xyz
output system.xyz

structure LiClO4.xyz
number 1
inside cylinder 15.865878145577614 36.053740635956366 8.034716078571428 -0.021659356335245305 -0.07397208167871674 8.121304242073144 2.8 54.85168999999999
over plane 0.0 0.0 1.0 0.0
below plane 0.0 0.0 1.0 56.85
over plane 1.0 -0.0002845 0.002664 0.0
below plane 1.0 -0.0002845 0.002664 63.69
over plane -0.0 1.0 0.009108 0.0
below plane -0.0 1.0 0.009108 72.38
end structure

structure LiClO4.xyz
number 1
inside cylinder 15.876174200577616 72.24374063595636 8.034716078571428 -0.021659356335245305 -0.07397208167871674 8.121304242073144 2.8 54.85168999999999
over plane 0.0 0.0 1.0 0.0
below plane 0.0 0.0 1.0 56.85
over plane 1.0 -0.0002845 0.002664 0.0
below plane 1.0 -0.0002845 0.002664 63.69
over plane -0.0 1.0 0.009108 0.0
below plane -0.0 1.0 0.009108 72.38
end structure

structure LiClO4.xyz
number 1
inside cylinder 47.71087814557762 36.053740635956366 8.034716078571428 -0.021659356335245305 -0.07397208167871674 8.121304242073144 2.8 54.85168999999999
over plane 0.0 0.0 1.0 0.0
below plane 0.0 0.0 1.0 56.85
over plane 1.0 -0.0002845 0.002664 0.0
below plane 1.0 -0.0002845 0.002664 63.69
over plane -0.0 1.0 0.009108 0.0
below plane -0.0 1.0 0.009108 72.38
end structure

structure LiClO4.xyz
number 1
inside cylinder 47.721174200577614 72.24374063595636 8.034716078571428 -0.021659356335245305 -0.07397208167871674 8.121304242073144 2.8 54.85168999999999
over plane 0.0 0.0 1.0 0.0
below plane 0.0 0.0 1.0 56.85
over plane 1.0 -0.0002845 0.002664 0.0
below plane 1.0 -0.0002845 0.002664 63.69
over plane -0.0 1.0 0.009108 0.0
below plane -0.0 1.0 0.009108 72.38
end structure

structure LiClO4.xyz
number 1
inside cylinder -0.002152988898973295 18.070789229418512 3.9733926857142863 -0.021659356335245305 -0.07397208167871674 8.121304242073144 2.8 54.85168999999999
over plane 0.0 0.0 1.0 0.0
below plane 0.0 0.0 1.0 56.85
over plane 1.0 -0.0002845 0.002664 0.0
below plane 1.0 -0.0002845 0.002664 63.69
over plane -0.0 1.0 0.009108 0.0
below plane -0.0 1.0 0.009108 72.38
end structure

structure LiClO4.xyz
number 1
inside cylinder 0.008143066101026707 54.26078922941851 3.9733926857142863 -0.021659356335245305 -0.07397208167871674 8.121304242073144 2.8 54.85168999999999
over plane 0.0 0.0 1.0 0.0
below plane 0.0 0.0 1.0 56.85
over plane 1.0 -0.0002845 0.002664 0.0
below plane 1.0 -0.0002845 0.002664 63.69
over plane -0.0 1.0 0.009108 0.0
below plane -0.0 1.0 0.009108 72.38
end structure

structure LiClO4.xyz
number 1
inside cylinder 31.842847011101025 18.070789229418512 3.9733926857142863 -0.021659356335245305 -0.07397208167871674 8.121304242073144 2.8 54.85168999999999
over plane 0.0 0.0 1.0 0.0
below plane 0.0 0.0 1.0 56.85
over plane 1.0 -0.0002845 0.002664 0.0
below plane 1.0 -0.0002845 0.002664 63.69
over plane -0.0 1.0 0.009108 0.0
below plane -0.0 1.0 0.009108 72.38
end structure

structure LiClO4.xyz
number 1
inside cylinder 31.853143066101023 54.26078922941851 3.9733926857142863 -0.021659356335245305 -0.07397208167871674 8.121304242073144 2.8 54.85168999999999
over plane 0.0 0.0 1.0 0.0
below plane 0.0 0.0 1.0 56.85
over plane 1.0 -0.0002845 0.002664 0.0
below plane 1.0 -0.0002845 0.002664 63.69
over plane -0.0 1.0 0.009108 0.0
below plane -0.0 1.0 0.009108 72.38
end structure

structure data.16170N2_ddec-0.75.xyz
number 1
fixed 0 0 0 0 0 0
end structure