tolerance 1.8
seed -1

filetype xyz
output system.xyz

structure LiClO4.xyz
number 1
inside cylinder 18.490451539596673 32.1277168309832 7.342538399999999 0.09191805068564735 0.07739130553957263 9.95596491626427 2.8 67.69682999999999
over plane 0.0 -0.0 1.0 0.0
below plane 0.0 -0.0 1.0 69.69
over plane 0.8666 0.4989 -0.01188 0.0
below plane 0.8666 0.4989 -0.01188 64.25
over plane 0.0 1.0 -0.007773 0.0
below plane 0.0 1.0 -0.007773 64.48
end structure

structure LiClO4.xyz
number 1
inside cylinder -0.07005619176727407 64.36771683098321 7.342538399999999 0.09191805068564735 0.07739130553957263 9.95596491626427 2.8 67.69682999999999
over plane 0.0 -0.0 1.0 0.0
below plane 0.0 -0.0 1.0 69.69
over plane 0.8666 0.4989 -0.01188 0.0
below plane 0.8666 0.4989 -0.01188 64.25
over plane 0.0 1.0 -0.007773 0.0
below plane 0.0 1.0 -0.007773 64.48
end structure

structure LiClO4.xyz
number 1
inside cylinder 55.56061078261537 32.1277168309832 7.342538399999999 0.09191805068564735 0.07739130553957263 9.95596491626427 2.8 67.69682999999999
over plane 0.0 -0.0 1.0 0.0
below plane 0.0 -0.0 1.0 69.69
over plane 0.8666 0.4989 -0.01188 0.0
below plane 0.8666 0.4989 -0.01188 64.25
over plane 0.0 1.0 -0.007773 0.0
below plane 0.0 1.0 -0.007773 64.48
end structure

structure LiClO4.xyz
number 1
inside cylinder 37.00010305125142 64.36771683098321 7.342538399999999 0.09191805068564735 0.07739130553957263 9.95596491626427 2.8 67.69682999999999
over plane 0.0 -0.0 1.0 0.0
below plane 0.0 -0.0 1.0 69.69
over plane 0.8666 0.4989 -0.01188 0.0
below plane 0.8666 0.4989 -0.01188 64.25
over plane 0.0 1.0 -0.007773 0.0
below plane 0.0 1.0 -0.007773 64.48
end structure

structure data.20470N2_ddec-0.75.xyz
number 1
fixed 0 0 0 0 0 0
end structure